LatticeConstant 1.0 Ang
%block LatticeVectors
 11.86554100 0.00000000 0.00000000
 0.00000000 13.94578400 0.00000000
 0.00000000 0.00000000 15.03596400
%endblock LatticeVectors

NumberOfAtoms 10
AtomicCoordinatesFormat Ang
%block AtomicCoordinatesAndAtomicSpecies
  0.00000300  0.00004200  5.18435200 1 #  1: Ba
  0.00000300  2.60069900  2.57708300 1 #  2: Ba
  1.86553700 -0.00001000  2.58710000 2 #  3: Ti
  1.86553700  2.60076300  5.19433800 2 #  4: Ti
  1.86554000  1.34500200  1.41452800 3 #  5: O
  1.86554000  3.85643000  1.41454000 3 #  6: O
  1.86554100  3.94577400  4.02179100 3 #  7: O
  1.86554100  1.25572600  4.02179400 3 #  8: O
 -0.00000000  0.00002300  2.76563200 3 #  9: O
 -0.00000000  2.60070500  0.15837400 3 # 10: O
%endblock AtomicCoordinatesAndAtomicSpecies

NumberOfSpecies 3
%block ChemicalSpeciesLabel
 1 56 Ba
 2 22 Ti
 3 8 O
%endblock ChemicalSpeciesLabel

%block PolarizationGrids
10   4   4
4    10  4
4    4   10
%endblock PolarizationGrids
