LatticeConstant 1.0 Ang
%block LatticeVectors
 13.14601400 0.00000000 0.00000000
 0.00000000 13.14602100 0.00000000
 0.00000000 0.00000000 13.14600100
%endblock LatticeVectors

NumberOfAtoms 3
AtomicCoordinatesFormat Ang
%block AtomicCoordinatesAndAtomicSpecies
 -0.75727800 -0.75728300 -0.75724900 1 # 1: Ti
  1.34020400  1.34020200  1.34025500 2 # 2: Zr
  2.38873600  2.38873800  2.38875200 3 # 3: Pb
%endblock AtomicCoordinatesAndAtomicSpecies

NumberOfSpecies 3
%block ChemicalSpeciesLabel
 1 22 Ti
 2 40 Zr
 3 82 Pb
%endblock ChemicalSpeciesLabel
